p td 22 132
2 1
4 1
4 3
5 3
5 4
5 1
6 5
6 2
7 4
7 5
7 2
8 2
8 5
8 4
9 4
9 5
9 7
9 8
9 3
9 6
9 2
10 7
10 6
10 9
10 1
10 2
10 3
11 5
11 10
11 9
11 8
11 2
11 7
12 3
12 1
12 6
12 2
12 4
12 8
12 9
13 4
13 9
13 7
13 11
13 1
13 8
13 3
14 9
14 13
14 10
14 6
14 8
15 2
15 12
15 6
15 13
15 5
15 11
15 7
15 3
15 8
15 1
15 14
16 10
16 8
16 3
16 11
16 14
16 15
16 2
17 16
17 14
17 8
17 12
17 9
17 13
17 2
17 10
18 11
18 2
18 14
18 1
18 16
18 6
18 10
18 5
18 13
18 17
18 4
19 6
19 16
19 3
19 18
19 13
19 4
19 7
20 5
20 7
20 3
20 6
20 14
20 1
20 13
20 8
20 17
20 4
20 12
21 12
21 10
21 5
21 18
21 19
21 6
21 4
21 11
21 15
21 2
21 7
21 20
21 8
21 1
21 13
22 2
22 14
22 6
22 9
22 12
22 11
22 13
22 3
22 16
22 4
